language Essence 1.3

letting blksize_delta be function(1 --> 8, 2 --> 4, 3 --> 4, 4 --> 7, 5 --> 6, 6 --> 4, 7 --> 8, 8 --> 7)
letting maxcars be function(1 --> 10, 2 --> 10, 3 --> 10, 4 --> 10, 5 --> 10, 6 --> 10, 7 --> 10, 8 --> 10)
letting n_cars be 188
letting n_classes be 47
letting n_options be 8
letting quantity be
        function(1 --> 4, 2 --> 4, 3 --> 4, 4 --> 4, 5 --> 4, 6 --> 4, 7 --> 4, 8 --> 4, 9 --> 4, 10 --> 4, 11 --> 4,
                 12 --> 4, 13 --> 4, 14 --> 4, 15 --> 4, 16 --> 4, 17 --> 4, 18 --> 4, 19 --> 4, 20 --> 4, 21 --> 4,
                 22 --> 4, 23 --> 4, 24 --> 4, 25 --> 4, 26 --> 4, 27 --> 4, 28 --> 4, 29 --> 4, 30 --> 4, 31 --> 4,
                 32 --> 4, 33 --> 4, 34 --> 4, 35 --> 4, 36 --> 4, 37 --> 4, 38 --> 4, 39 --> 4, 40 --> 4, 41 --> 4,
                 42 --> 4, 43 --> 4, 44 --> 4, 45 --> 4, 46 --> 4, 47 --> 4)
letting usage be
        relation((1, 2), (1, 4), (1, 7), (1, 8), (2, 1), (2, 2), (2, 3), (2, 5), (2, 7), (2, 8), (3, 3), (4, 1), (4, 2),
                 (4, 5), (4, 6), (4, 7), (5, 1), (5, 2), (5, 4), (5, 5), (5, 7), (6, 2), (6, 6), (6, 7), (7, 1), (7, 3),
                 (7, 4), (7, 5), (7, 6), (8, 1), (9, 1), (9, 3), (9, 4), (9, 5), (9, 6), (10, 2), (10, 8), (11, 6),
                 (12, 2), (12, 5), (12, 6), (12, 8), (13, 2), (13, 3), (13, 6), (13, 8), (14, 4), (14, 7), (15, 1),
                 (15, 4), (15, 5), (15, 7), (16, 2), (16, 3), (16, 5), (16, 6), (17, 1), (17, 6), (17, 7), (18, 2),
                 (18, 4), (18, 5), (18, 6), (18, 7), (18, 8), (19, 2), (19, 5), (19, 6), (19, 8), (20, 2), (20, 4),
                 (20, 5), (20, 8), (21, 2), (21, 5), (22, 1), (22, 2), (22, 3), (22, 5), (23, 1), (23, 5), (24, 2),
                 (24, 6), (25, 1), (25, 2), (25, 3), (25, 4), (25, 5), (25, 7), (26, 2), (26, 3), (26, 4), (26, 8),
                 (27, 1), (27, 3), (27, 4), (27, 6), (27, 7), (27, 8), (28, 1), (28, 2), (28, 5), (28, 6), (28, 8),
                 (29, 2), (29, 5), (29, 7), (30, 1), (30, 2), (30, 3), (30, 5), (30, 8), (31, 2), (31, 4), (31, 5),
                 (31, 7), (32, 2), (32, 3), (32, 7), (33, 2), (33, 4), (33, 5), (33, 6), (34, 3), (34, 5), (34, 8),
                 (35, 1), (35, 7), (35, 8), (36, 1), (37, 1), (37, 2), (37, 3), (37, 6), (37, 8), (38, 1), (38, 4),
                 (38, 8), (39, 3), (39, 4), (39, 5), (39, 6), (39, 8), (40, 6), (40, 8), (41, 1), (41, 2), (41, 6),
                 (41, 8), (42, 8), (43, 2), (43, 7), (43, 8), (44, 1), (44, 2), (44, 4), (44, 7), (44, 8), (45, 2),
                 (45, 3), (45, 7), (45, 8), (46, 5), (46, 7), (46, 8), (47, 1), (47, 2), (47, 3), (47, 4), (47, 5),
                 (47, 6), (47, 7), (47, 8))
$ Visualisation for usage
$  1  2
$  1  4
$  1  7
$  1  8
$  2  1
$  2  2
$  2  3
$  2  5
$  2  7
$  2  8
$  3  3
$  4  1
$  4  2
$  4  5
$  4  6
$  4  7
$  5  1
$  5  2
$  5  4
$  5  5
$  5  7
$  6  2
$  6  6
$  6  7
$  7  1
$  7  3
$  7  4
$  7  5
$  7  6
$  8  1
$  9  1
$  9  3
$  9  4
$  9  5
$  9  6
$ 10  2
$ 10  8
$ 11  6
$ 12  2
$ 12  5
$ 12  6
$ 12  8
$ 13  2
$ 13  3
$ 13  6
$ 13  8
$ 14  4
$ 14  7
$ 15  1
$ 15  4
$ 15  5
$ 15  7
$ 16  2
$ 16  3
$ 16  5
$ 16  6
$ 17  1
$ 17  6
$ 17  7
$ 18  2
$ 18  4
$ 18  5
$ 18  6
$ 18  7
$ 18  8
$ 19  2
$ 19  5
$ 19  6
$ 19  8
$ 20  2
$ 20  4
$ 20  5
$ 20  8
$ 21  2
$ 21  5
$ 22  1
$ 22  2
$ 22  3
$ 22  5
$ 23  1
$ 23  5
$ 24  2
$ 24  6
$ 25  1
$ 25  2
$ 25  3
$ 25  4
$ 25  5
$ 25  7
$ 26  2
$ 26  3
$ 26  4
$ 26  8
$ 27  1
$ 27  3
$ 27  4
$ 27  6
$ 27  7
$ 27  8
$ 28  1
$ 28  2
$ 28  5
$ 28  6
$ 28  8
$ 29  2
$ 29  5
$ 29  7
$ 30  1
$ 30  2
$ 30  3
$ 30  5
$ 30  8
$ 31  2
$ 31  4
$ 31  5
$ 31  7
$ 32  2
$ 32  3
$ 32  7
$ 33  2
$ 33  4
$ 33  5
$ 33  6
$ 34  3
$ 34  5
$ 34  8
$ 35  1
$ 35  7
$ 35  8
$ 36  1
$ 37  1
$ 37  2
$ 37  3
$ 37  6
$ 37  8
$ 38  1
$ 38  4
$ 38  8
$ 39  3
$ 39  4
$ 39  5
$ 39  6
$ 39  8
$ 40  6
$ 40  8
$ 41  1
$ 41  2
$ 41  6
$ 41  8
$ 42  8
$ 43  2
$ 43  7
$ 43  8
$ 44  1
$ 44  2
$ 44  4
$ 44  7
$ 44  8
$ 45  2
$ 45  3
$ 45  7
$ 45  8
$ 46  5
$ 46  7
$ 46  8
$ 47  1
$ 47  2
$ 47  3
$ 47  4
$ 47  5
$ 47  6
$ 47  7
$ 47  8

